H144@Ti68
   1.000000000000000
  21.216474743956120  0.000000000000000  0.000000000000001
   8.896368716901350 22.539202150907769  0.000000000000001
   0.000000000000000  0.000000000000000 30.675530034588519
  H   Pb   C   I   N   Ti   O
  144  24  24  72  24  68  136
Direct
   0.458826497777430  0.468015170576001  0.241137974302509
   0.781138851750588  0.648535203085305  0.252397198661578
   0.138613123666066  0.806290804056067  0.269254446661995
   0.460851868314804  0.965245602663068  0.247484893510131
   0.786073446284380  0.151168067815112  0.253658065351706
   0.142342486726338  0.305431718252120  0.270383874051257
   0.566649328200808  0.272898447873420  0.256156330845981
   0.891032653277036  0.449018127400629  0.250361845440421
   0.229301008130345  0.602487147036033  0.265266332031434
   0.569802041810242  0.774563611812312  0.258834682934651
   0.893424058799055  0.943541545833671  0.251800249539305
   0.231033283697022  0.103217370220613  0.268881176331733
   0.182294365265739  0.385512137792973  0.285532657806053
   0.532444957888922  0.524757015527731  0.248910215545617
   0.868736770090121  0.690699337261112  0.256529837413184
   0.180198974469118  0.884484044475905  0.287262039547522
   0.533822134092431  0.022677778101514  0.252737524431766
   0.869700350898804  0.197667050484856  0.255694360545609
   0.468831160260686  0.242617411297021  0.255223423499972
   0.827773472448663  0.383246093800016  0.249253371040095
   0.117901335532071  0.596156308846503  0.272454403912060
   0.474051912540768  0.741534565105449  0.256146672657208
   0.826049554312356  0.881046449291351  0.251312950243680
   0.118452839950319  0.098152404426524  0.270541887813188
   0.229237516704338  0.777382187150230  0.275874129901699
   0.233251417376438  0.278632360422737  0.275002486007530
   0.136605730041713  0.376174144880744  0.328300039788818
   0.462526512515214  0.554752569757295  0.279702597538190
   0.799735897149236  0.733652350450664  0.284038807722617
   0.131983322405441  0.875456707873558  0.328521026722174
   0.465185973373307  0.052679076019579  0.284557699835677
   0.802461232505710  0.236818738345562  0.286255349566215
   0.461140152113761  0.290783868486351  0.295937469298430
   0.784854953236305  0.445169065046284  0.277504488840458
   0.136807349517374  0.626784100391698  0.318129385911466
   0.462262285061656  0.791126139321709  0.296188990852166
   0.785401348771870  0.943929336662589  0.279144670397413
   0.133303875757039  0.128991937893574  0.317355461731445
   0.540845179177337  0.425669358280181  0.263240370112510
   0.856259205621517  0.600891332856888  0.279884196751598
   0.543814151787262  0.923569379180230  0.268522324981952
   0.865090925840056  0.104582339040607  0.277587577067671
   0.236302656766537  0.526392472325260  0.268683038170294
   0.594175581433680  0.696819369499141  0.270361790471366
   0.935012363335174  0.874222264337348  0.279145068287785
   0.235788294876904  0.027632141935759  0.270500282650612
   0.589378107667982  0.194966542827588  0.266359122828191
   0.935393858091882  0.379985331828380  0.277344962464411
   0.875237161007514  0.191705937970231  0.310545787851341
   0.221061944173542  0.351301603643662  0.331685726913521
   0.536499547447781  0.513361899631987  0.303737361989309
   0.868804887394917  0.687733746166413  0.311640468943733
   0.216165621198950  0.849062891405984  0.333711095059966
   0.540392945078142  0.012042568181712  0.307586503181938
   0.484796710910835  0.218242722647295  0.307760359515107
   0.825962159821442  0.381239433184200  0.304474499282300
   0.142175415450422  0.556252553059304  0.319383618759102
   0.487619861498146  0.718831375472245  0.309253240403279
   0.824345074037980  0.879951851347030  0.306618541955225
   0.137583261286848  0.058701807342661  0.317983366545804
   0.468407071714938  0.453762021270660  0.298769973392176
   0.782943681195359  0.644270215039556  0.311034827545612
   0.175693825099376  0.769653813421046  0.319127601835758
   0.472664901337719  0.951757296063066  0.305124858445627
   0.793634340815781  0.143403817548146  0.311928259942893
   0.182666865123800  0.270303426220442  0.319866736274245
   0.583259956269929  0.244660858737155  0.310897627870415
   0.890828266904453  0.445540951798643  0.308870368477340
   0.252981497202047  0.562978120148215  0.315729530431105
   0.583747992316122  0.748432150296136  0.314225359321840
   0.893092884944167  0.940638058705061  0.310295592537763
   0.249213676173192  0.062926112227838  0.319231625819097
   0.201268385511519  0.335053028547501  0.483944406960932
   0.552661105407194  0.505478776994173  0.486417445152660
   0.863184351218198  0.693742199028399  0.460577448673642
   0.190539829121006  0.840409613006422  0.482993865804397
   0.540575999769059  0.028035065495971  0.471460509376598
   0.866147508330490  0.188884357320102  0.445543254235627
   0.136078500516874  0.555419699929006  0.473206818870956
   0.474581275176056  0.689797502392506  0.464071499450279
   0.768698012703644  0.902552545819807  0.463862249271285
   0.127142989810314  0.062895328875753  0.468307186931574
   0.461700292562762  0.195327075672377  0.461282147871732
   0.792065902197560  0.383651679622382  0.468549282806782
   0.486540250568903  0.473862201378337  0.434343481749710
   0.791921865904180  0.634449150951542  0.453533392849150
   0.074141751774144  0.848799667897418  0.471401326909090
   0.469586216919435  0.980318257203324  0.436146346384416
   0.780933206465798  0.143238947139605  0.449478050008380
   0.084485844076121  0.345141064645652  0.471500431315975
   0.184022062063729  0.631559588153998  0.460478511431908
   0.856482725460156  0.943950360893713  0.447671105812777
   0.170452816728838  0.142967978543607  0.461067533423593
   0.858547703389293  0.446282538257665  0.454311252628141
   0.537001500430816  0.756055115733612  0.447026381540238
   0.524447250155033  0.255932354745201  0.434441559822375
   0.531210322255498  0.417183298966219  0.466701034002594
   0.864977541510719  0.595511404763019  0.479591735458673
   0.104959768189803  0.812445333940417  0.519543130312902
   0.539879197572187  0.929848331172264  0.459091468003353
   0.853910163704075  0.099938449726804  0.473995061659685
   0.113070529039859  0.307553729292142  0.519578956446163
   0.232845531987195  0.581625989085993  0.495649966697270
   0.585682632073374  0.691796003715685  0.471818460633673
   0.890695461048691  0.873028083890216  0.466619132489135
   0.219484199223392  0.092119626953122  0.495394990051545
   0.573377390479926  0.200225877739401  0.467273159491365
   0.905036059512140  0.382261414705224  0.480352788747439
   0.145694488631448  0.411471533061784  0.486542815866473
   0.463143336945563  0.542842290707844  0.495597450440418
   0.784917648736271  0.725189237942752  0.490246752296145
   0.133937630950937  0.916645166244012  0.483314611227637
   0.458124094253209  0.048916566652346  0.496012305543012
   0.793175331868607  0.232410529898461  0.477003353815863
   0.425840759318817  0.270658045877583  0.480162267940500
   0.759042271187786  0.453453058346065  0.496821199868040
   0.081551547255484  0.626964592721852  0.492919096197797
   0.439584632890704  0.761195380504762  0.489804908195407
   0.761117294861824  0.965697919874169  0.497328083673899
   0.068754395360895  0.132008896093301  0.489318672447754
   0.446452003914780  0.452398838216775  0.474154523067888
   0.792163656931503  0.626088308163554  0.508701908806416
   0.049483632061257  0.884262416611985  0.518736899300048
   0.465012533035605  0.946334233621424  0.483389291562872
   0.786848810499401  0.140472552317805  0.504552218429375
   0.059673974039454  0.378809675164623  0.519646020146006
   0.179045260458275  0.649529389381831  0.514171496097803
   0.556942981440470  0.755885617029780  0.500334650082410
   0.885535984796235  0.928755426385230  0.499762802907094
   0.163033495019795  0.157211801451764  0.515801395452970
   0.539788061964854  0.270726696519469  0.485872425212280
   0.875652342163537  0.446468072053349  0.508195807784380
   0.176079875131368  0.369995109366824  0.535884723530938
   0.511669859001451  0.481031711569121  0.529550511404329
   0.861798179174864  0.683801873277375  0.518575170976101
   0.164951709648308  0.878378514747002  0.533798108061255
   0.530804333038582  0.993899703481840  0.521570944804226
   0.869885057867754  0.186771715031402  0.503978705189870
   0.133151431701402  0.572652648719946  0.530418324703619
   0.492015103652447  0.698010131659023  0.520537973182723
   0.799299353430664  0.891856509078761  0.518944396091600
   0.120580445478829  0.076556033735273  0.526061585909287
   0.478509654699984  0.213700427751665  0.515798721628176
   0.809785380423434  0.387430056002719  0.525562323559475
   0.317438072746492  0.348489528159523  0.184086917462734
   0.320743104712186  0.850303087925022  0.185156805344381
   0.692891724554360  0.516963122154506  0.173788709146119
   0.990105472737366  0.721839131635342  0.174538147229755
   0.690075449318572  0.013194826450158  0.175364422161590
   0.993944933247181  0.225342566907407  0.172560915532858
   0.037731112476233  0.514780741114208  0.180639709590982
   0.041003952549637  0.014572858627617  0.179635902661760
   0.345041499079271  0.713056995801447  0.179559926107187
   0.702692123451119  0.878713189101487  0.173510452797251
   0.340542128679211  0.211055586046283  0.181073459268190
   0.704366893151499  0.382839701228591  0.169772409450361
   0.325420819538285  0.424757611799656  0.389856663575061
   0.658093956457610  0.579031999567752  0.382756569122377
   0.984206383438074  0.758394136300166  0.385845191796724
   0.324974363688015  0.920121337862951  0.387616079538855
   0.659491463645319  0.081592457494240  0.383408419590235
   0.983213758262435  0.265608297476698  0.383496907622211
   0.991321282618320  0.507656785182416  0.389305665525544
   0.325931086730800  0.666193000302795  0.387781958533190
   0.657679985990806  0.833543323767036  0.382945326827889
   0.990170041936067  0.007764643274734  0.387993167221078
   0.320450521287471  0.167413738164815  0.388432756668225
   0.655368830264972  0.338224904759182  0.377026500809114
   0.180364197581625  0.798030720863199  0.292419660463497
   0.185099367448758  0.298552441152279  0.292485150529314
   0.492486352573201  0.462170736206531  0.269236142738337
   0.812677228463370  0.642887534560978  0.281554453077953
   0.495512471803359  0.959921624554416  0.274979758082070
   0.820113927443623  0.145119326912743  0.281588361548706
   0.222136687825338  0.568628695684658  0.286188153023296
   0.565273537624621  0.741834510390717  0.282029020847086
   0.892012243158690  0.916645113224847  0.280201271449894
   0.221045031837754  0.069534523054570  0.288492678891323
   0.562415250944298  0.239764583463346  0.279085350691328
   0.891006542108592  0.421402067196445  0.278621013282542
   0.159992362874110  0.367909403135018  0.502187541692203
   0.505760040971177  0.500086837620318  0.496717696217211
   0.833489761729020  0.687778165655074  0.488136497841645
   0.148952033265056  0.874045140808268  0.500430286976358
   0.506706707585960  0.012432731813155  0.490546263640382
   0.837335388013395  0.190812956894588  0.475522252403436
   0.469695938063546  0.228984483800956  0.481956753083447
   0.801614336286411  0.410905730605532  0.494314371083403
   0.130304649152859  0.590334091498019  0.497311085432197
   0.483143186511993  0.719268772627042  0.488444474424698
   0.792275917827865  0.919497540714447  0.489731367879347
   0.118409132883042  0.096586887223758  0.493814492885551
   0.126481358886241  0.587110482722984  0.179816755223449
   0.471076993023978  0.744229280905999  0.170222065436097
   0.868287177235253  0.843041723184775  0.170223630716219
   0.128897987726013  0.087533456506639  0.181067216278027
   0.466748178137637  0.241361113719487  0.169012339744879
   0.870970652585049  0.345309238940852  0.168515498316304
   0.152177521053024  0.391575780638973  0.189221827045551
   0.560122327181208  0.497777381959719  0.162996368583108
   0.898915559680540  0.652241957067878  0.173686883954845
   0.156678098543394  0.891497011807960  0.187975339277840
   0.557413196929659  0.993120769271932  0.166789531401497
   0.904522197733583  0.153970557046304  0.174952476617107
   0.336826481063898  0.381625588151720  0.277284687063394
   0.685731640234918  0.544339391495519  0.269894057728335
   0.003148744453361  0.732852757134668  0.270238940090957
   0.337687574813581  0.879431099278681  0.280494902889765
   0.687407111230470  0.043878072655175  0.270829054951595
   0.010102053077000  0.240349196651202  0.267233860635288
   0.366750237791901  0.667514644060863  0.271471493439960
   0.698374697031191  0.837610836935521  0.267154728979374
   0.015069565283297  0.010238772646359  0.273904727603039
   0.366222279435582  0.164058963370027  0.272832903526741
   0.697721996056830  0.341228275666595  0.262694638334773
   0.012600048043376  0.518505301811847  0.275446474732787
   0.162410615376972  0.485692490150366  0.381995413548807
   0.501560432695766  0.652796813882705  0.371990108999887
   0.824538527829788  0.828701279307945  0.376403157209870
   0.163378335151119  0.984447713602206  0.379398636198927
   0.503481678789886  0.149663072397429  0.370713621941730
   0.823031704177102  0.325894992208729  0.372039355885716
   0.297945586927859  0.304690673587130  0.398971997758347
   0.595511530955393  0.476894473199009  0.375115956101282
   0.940923306487217  0.648012826992721  0.377636941668492
   0.290805591944653  0.806495733618539  0.402842725189315
   0.606790934060557  0.972687667109983  0.377260053367314
   0.963527322859920  0.143985600850056  0.369412976638265
   0.497499162041642  0.346073470438537  0.377726222030107
   0.837842909536260  0.514362241045450  0.387450816629269
   0.164484128170824  0.682758051750837  0.383648837733711
   0.498592461878009  0.842892684367459  0.386037130211227
   0.836586576411835  0.018793410069775  0.385015729362923
   0.161839399626884  0.184996160768617  0.382497664039048
   0.380739313714227  0.528890030635924  0.367090641172291
   0.702464196943218  0.692689559577273  0.387939788575256
   0.041174150938037  0.867360196934480  0.384469787816224
   0.381439834957010  0.027165269025892  0.371728275484464
   0.700562245763630  0.196006406562681  0.381278054370503
   0.048415954395104  0.367391976258624  0.384419427967307
   0.326390128873743  0.450166414626716  0.486036614245493
   0.654693228369481  0.578754756487265  0.479266188406048
   0.975109068390060  0.765472753427407  0.481509999390301
   0.296664075829549  0.960336719993504  0.484536720750413
   0.655037394241031  0.091242788002002  0.480839728274953
   0.976410025312351  0.268644092479529  0.479081921421138
   0.328876664212352  0.152248856615552  0.483339593593514
   0.657242240142654  0.341632773621724  0.473350024364163
   0.989469365667777  0.515366704966942  0.485671957106284
   0.339353083321059  0.648270576486365  0.482069402157193
   0.653916989248981  0.841684039725973  0.479445572721023
   0.981083904483113  0.020658921646444  0.484298473219004
   0.614229245711098  0.247810764980114  0.571300100130192
   0.854726544883764  0.510781026116004  0.581773395129468
   0.147460049481427  0.729253931649319  0.562777131375026
   0.540789320904530  0.803902761993477  0.578460632792170
   0.839889810052671  0.027276853242352  0.579938687131813
   0.139071950632913  0.229218091800955  0.568560916291595
   0.490381220567089  0.345522674379739  0.553490154476935
   0.744878248160196  0.631295383470111  0.581537574238912
   0.423420150227306  0.880498652861370  0.534983040382756
   0.757625931945291  0.159073707430996  0.586246169709494
   0.937822772892806  0.907356547321332  0.577731376428803
   0.963659636388016  0.392597233011583  0.581526053224525
   0.180881161630885  0.356880351263441  0.310185337746559
   0.506623837968963  0.517470322675604  0.275765070691761
   0.838809468851183  0.692135156429352  0.283674047117355
   0.176947281132067  0.855621288575239  0.311210473536332
   0.509347354165526  0.015557314519566  0.280326403629072
   0.842866505084835  0.196410847434469  0.283832350615062
   0.489812209463594  0.248489385485341  0.284755504738927
   0.828784485507982  0.406840045065418  0.277406131743374
   0.149721638797854  0.588343010596641  0.299258240929181
   0.492926757567685  0.748864391891093  0.286060780346543
   0.828177070108336  0.904636122141913  0.279242411950779
   0.147478958922325  0.090319027782160  0.298712815001424
   0.491451991172699  0.458389371971193  0.466166788589698
   0.819884086089060  0.632288694644317  0.481668103844592
   0.090541557578383  0.854197529752058  0.502381222630395
   0.494258108840885  0.964730319745802  0.465584213621026
   0.813147334574689  0.140316872227933  0.475677224289210
   0.100778749969966  0.349153815057765  0.502741975325346
   0.185271349289894  0.613962646361491  0.491541616249670
   0.544515237927635  0.731727280689705  0.475830587486639
   0.860103674106989  0.916591391327558  0.474621558534788
   0.171181679735165  0.123206943342473  0.491268216186393
   0.530730602478601  0.239471342942040  0.466136317849486
   0.864030405283698  0.422392782161712  0.483336977057343
   0.761647255155635  0.019040183255944  0.697507048872442
   0.585000798164513  0.136886649183795  0.697747528587860
   0.291374412111307  0.665849959397976  0.697562098170107
   0.350245844300423  0.960204415752585  0.697548362061071
   0.997328540847489  0.195546678071084  0.697138985451288
   0.467675044820178  0.548314906987108  0.697388109024209
   0.056216389485417  0.489745126081823  0.697826843428215
   0.938442684991746  0.901187828299006  0.697465832146999
   0.173753730412524  0.077918354659938  0.697381498049422
   0.408632262252360  0.254561885950311  0.697938697415215
   0.232416265921801  0.372129895168918  0.697938723403637
   0.703255582118656  0.724971695536207  0.697685244103523
   0.114999171691387  0.783522860111117  0.697523758093146
   0.820751415217930  0.313125570065928  0.696989875559431
   0.643998649267092  0.430813365057264  0.697114730921988
   0.879920164478340  0.607368538761863  0.697787910717877
   0.526722572832559  0.842574639621453  0.697644248127661
   0.703868193471895  0.126480973672355  0.761659335728255
   0.350953060750201  0.361866382761375  0.762541689799332
   0.174673211301037  0.479397719513345  0.762538943281639
   0.468733442638887  0.950039218215076  0.762026466847821
   0.292205236594904  0.067678081590478  0.761855345520453
   0.527359327309846  0.244222388558160  0.762163101817442
   0.880477167813361  0.008738720561047  0.761420596051315
   0.115738129463282  0.185364794557743  0.761772630185337
   0.586406150694178  0.538231972171137  0.761743898857988
   0.939278194170933  0.302953732336836  0.761467265764695
   0.645234861417562  0.832396808470256  0.762077488917899
   0.998348499104061  0.596970688312642  0.762401042949396
   0.233630813273710  0.773384040602912  0.761879937594518
   0.057091140903520  0.891041687879549  0.761718334233882
   0.821734493094222  0.714671895424357  0.762052484327241
   0.410075620447575  0.655791926778393  0.761903293348017
   0.762764050045898  0.420543883850835  0.761232038367806
   0.700064118762868  0.920131360512364  0.759465848074696
   0.523472744531373  0.037839671797192  0.759579964902140
   0.229585445617875  0.567090287140288  0.759461746149701
   0.582300858633838  0.331913562859804  0.758953978232596
   0.288447782046036  0.861140978839144  0.759133161181911
   0.876620359677426  0.802376075877360  0.759376549401766
   0.111853840982433  0.978833570132409  0.758881183132142
   0.346988557962705  0.155446941272593  0.759580443825519
   0.817669015504516  0.508230671382450  0.758912372143487
   0.935277673393312  0.096510487258374  0.758585498280718
   0.170543955735639  0.273120847067953  0.759484462316987
   0.405906328657967  0.449517143316449  0.759260009964434
   0.641303537745452  0.625940560146658  0.759185014182240
   0.994038265880309  0.390742328644573  0.759146364683229
   0.464829297645834  0.743557654145553  0.759180736580417
   0.053181463176932  0.684713537740070  0.759418932281414
   0.758748188214419  0.214187775390102  0.758531009030751
   0.583375516697299  0.733306368563877  0.823567076234213
   0.642259051926636  0.027663202084886  0.823675931450798
   0.230243622012139  0.968585570919711  0.823327650522783
   0.465594841715368  0.145319263610734  0.823947075341074
   0.818870653270060  0.909969976503791  0.823538254122133
   0.053695770831023  0.086218009260843  0.823115516462376
   0.288999081878128  0.262878588206658  0.824010448652200
   0.759877154569409  0.615572598080659  0.823557301786035
   0.112429994659106  0.380460186194806  0.823870377793632
   0.936068364856951  0.498048702949443  0.823738018735736
   0.406885292952134  0.850974508774976  0.823552823081675
  -0.004686529474529  0.792205829724141  0.823632840169358
   0.701129449701564  0.321530677859675  0.823032276566933
   0.524741739834945  0.439205035065299  0.823474222391358
   0.877346192210632  0.203876991989605  0.822955833441358
   0.348369186839450  0.556895999879623  0.823705232169396
   0.171834756875731  0.674559156169358  0.823728857892915
   0.561032076476805  0.498020599200118  0.684054919164451
   0.031986812841987  0.850753863140831  0.684487622655023
   0.737615619302173  0.380456044497578  0.684174687254569
   0.325773679024488  0.321689120052610  0.684784147214410
   0.796883260125169  0.674646409223855  0.684847587093146
   0.149593417706497  0.439289509615404  0.684732138132488
   0.384787492336931  0.615545814333641  0.684355853694143
   0.620235526224735  0.792194208436322  0.684668085270301
   0.678547182878486  0.086396799791460  0.684759090496796
   0.443756511724223  0.909798245621065  0.684579369082116
   0.267321252783755  0.027519933394028  0.684493547920153
   0.502058531128490  0.204126559167459  0.684805792972687
   0.090846908493175  0.145145938310039  0.684182021362229
   0.973339368982633  0.556979256526769  0.684705717544580
   0.208480774040435  0.733106959838311  0.684495095381237
   0.914346431382788  0.262801829418961  0.684043990859359
   0.855303854173359  0.968566597876733  0.684709439086594
   0.611983283048136  0.379816915976403  0.719778243420716
   0.788865226535338  0.261965547212147  0.719507089808987
   0.435786261164297  0.497212047522198  0.720058704652591
   0.906657920081864  0.850156399872810  0.720284645342872
   0.729792786411942  0.968078390302782  0.720341252185272
   0.083135929266356  0.732506561699701  0.720321044921343
   0.847988007359255  0.556250371548713  0.720320539259728
   0.671388858003630  0.673862589167573  0.720304816602608
   0.259484262156747  0.614780039906041  0.720254882332443
   0.553108392353795  0.085914390943470  0.720550893111296
   0.376787997340293  0.203518247624480  0.720684726049482
   0.965340793870740  0.144470175228674  0.719688194261738
   0.200440834647842  0.321087311156595  0.720555514475456
   0.024140190857111  0.438713237139945  0.720344785207845
   0.318317278008085  0.909141328860499  0.720170485974969
   0.141818217853394  0.026842778237944  0.719984596675644
   0.494824428765459  0.791496084394501  0.720265817773516
   0.263145243906479  0.819990707104021  0.719585047502721
   0.732872472277004  0.173254891649190  0.719136637749113
   0.145255629293087  0.232197991874118  0.719729225924595
   0.851092171379012  0.761443963293671  0.719788491659883
   0.498029175667111 -0.003063803209137  0.719896130995576
   0.086462843410053  0.937715399389914  0.719368932020137
   0.615615916305308  0.585140356709177  0.719552948654658
   0.968555863705095  0.349969616459478  0.719390871870697
   0.203802118393289  0.526074616769104  0.720071653850953
   0.674524210630800  0.879202716648443  0.719853084732732
   0.321671890179986  0.114553961650908  0.719814406121967
   0.556268917154396  0.291009314265046  0.719625648492789
   0.909811516288527  0.055456644712798  0.719057278367218
   0.439221445573108  0.702623346460212  0.719617753070124
   0.027577964596800  0.643664525564252  0.719974395750897
   0.792119318622180  0.467533625330441  0.719132944223920
   0.379863199671301  0.408569634672829  0.719964123515071
   0.783910986585627  0.054477934459707  0.745917680044897
   0.607235744193626  0.172221901033675  0.746260572670484
   0.430774156120126  0.289876238905422  0.746529954056085
   0.666195750734822  0.466207947572421  0.745609136440183
   0.254443632701807  0.407339046598356  0.746639221907407
   0.313542944903450  0.701211223989258  0.746105613172740
   0.372261599954604  0.995597811245911  0.746110479590688
   0.960637366947676  0.936653616206775  0.745893035936419
   0.195767236181114  0.113320579138318  0.745941161111126
   0.901919507482487  0.642663950506914  0.746403028944781
   0.725228141033599  0.760357085744114  0.746261857773463
   0.078223775487153  0.524914190389920  0.746537525325173
   0.548738794460601  0.877972523759789  0.746214736081085
   0.137183180803816  0.818973995361090  0.745988836609214
   0.842798077037335  0.348531840381330  0.745510875459609
   0.019341465929586  0.230965736914584  0.745698444266992
   0.489897855940749  0.583674526106718  0.745923650327106
   0.737825236171390  0.580233536298559  0.774957908414229
   0.502442536416873  0.403907838240198  0.774961659789192
   0.561332972122292  0.697965124682841  0.774983205914733
   0.266994693940911  0.227548727767479  0.775421214317946
   0.090483564531935  0.345211783363168  0.775200584446093
   0.384902296004984  0.815584852371272  0.774978380110270
   0.620003532971601  0.992208933091915  0.775235167737229
   0.208285007107613  0.933143449575751  0.774782105316726
   0.443438420426301  0.109897736800789  0.775458360334250
   0.678899943754667  0.286248508551824  0.774459787252563
   0.796639868162677  0.874514150255106  0.775084463990098
   0.031703047855710  0.050851415646225  0.774536438691557
   0.855248270497783  0.168561051766172  0.774372798454071
   0.326134771488057  0.521555067541929  0.775185696657491
   0.914108783107840  0.462746372293345  0.775082305024191
   0.149702265252659  0.639158423262336  0.775212587211499
   0.973116500794835  0.756693892036230  0.775191308156017
   0.612048957500611  0.579039088941308  0.801384462040833
   0.376864359657277  0.402855407970721  0.801868631090469
   0.200461505836161  0.520374926328338  0.801951224066366
   0.729697175112530  0.167492715748057  0.801020459704625
   0.317500041563037  0.108569807873032  0.801631030551379
   0.553372976130595  0.285118909975560  0.801503781181274
   0.788374477702983  0.461294683546827  0.800959292449159
   0.905937176616226  0.049850645926151  0.800910327663190
   0.140985238302970  0.226258038897636  0.801556254736867
   0.847186693696890  0.755690855925994  0.801637721429522
   0.964765396560909  0.343723316952902  0.801219975958768
   0.670788719262181  0.873311279650114  0.801690565898471
   0.024138289011591  0.637884943742902  0.801861166867254
   0.259099210802296  0.814410186224724  0.801427743672072
   0.494112678488360  0.990968110805744  0.801716523786498
   0.082469335626588  0.932157269756726  0.801235413882879
   0.435691344202127  0.696713972890682  0.801476727342877
   0.085616004534855  0.137257244841381  0.800438774029157
   0.144489034170112  0.431599216627376  0.801482377647571
   0.438797465450697  0.902074390588566  0.800972180349786
   0.674097306996581  0.078672530316465  0.800867525598961
   0.262078369858017  0.019666944962556  0.800637803111107
   0.497375879351895  0.196470903520831  0.801298926206246
   0.320912829622235  0.314085639043232  0.801580423820352
   0.556653093953223  0.490209940066557  0.800723254311517
   0.909229406393846  0.254917862496367  0.800230367189349
   0.380288588567049  0.607896717933328  0.800988788106191
   0.615299026586858  0.784412080293252  0.800997686531173
   0.203702268649489  0.725588389969174  0.800996138773135
   0.027237220602210  0.843117590662493  0.800769142804207
   0.732961656757496  0.372541133411582  0.800213873646388
   0.850742973080379  0.960902733493562  0.800668480440753
   0.791880197710179  0.666597577546987  0.800935602164506
   0.968107318232096  0.549168767734160  0.801280674094390
   0.725304549632681  0.960363730087817  0.836529281483821
   0.548728990184066  0.078019555088005  0.836758493282996
   0.136671964768786  0.018961522183943  0.836170876360918
   0.372034817203440  0.195621588149730  0.837003631416892
   0.842646836121220  0.548388963075590  0.836874969697941
   0.195394218359464  0.313159308132892  0.836907305058456
   0.666360795686577  0.666016226087707  0.836489631621770
   0.018954049817812  0.430833062445045  0.836896353600237
   0.489877217265601  0.783712299919071  0.836569163339003
   0.313303692742420  0.901368112266102  0.836377652557726
   0.901792173441784  0.842688833107122  0.836602409839572
   0.607758508886725  0.371915759252332  0.836282258320689
   0.254857525905113  0.607335661830952  0.836725033208969
   0.078303871790530  0.724997687431427  0.836710280192143
   0.783980176891045  0.254292839581869  0.836102372482334
   0.960240198870050  0.136655356021968  0.836067511444215
   0.431353418378167  0.489678443466439  0.836688517887998

  0.00000000E+00  0.00000000E+00  0.00000000E+00
  0.00000000E+00  0.00000000E+00  0.00000000E+00
  0.00000000E+00  0.00000000E+00  0.00000000E+00
  0.00000000E+00  0.00000000E+00  0.00000000E+00
  0.00000000E+00  0.00000000E+00  0.00000000E+00
  0.00000000E+00  0.00000000E+00  0.00000000E+00
  0.00000000E+00  0.00000000E+00  0.00000000E+00
  0.00000000E+00  0.00000000E+00  0.00000000E+00
  0.00000000E+00  0.00000000E+00  0.00000000E+00
  0.00000000E+00  0.00000000E+00  0.00000000E+00
  0.00000000E+00  0.00000000E+00  0.00000000E+00
  0.00000000E+00  0.00000000E+00  0.00000000E+00
  0.00000000E+00  0.00000000E+00  0.00000000E+00
  0.00000000E+00  0.00000000E+00  0.00000000E+00