H80@Ti48
   1.000000000000000
   9.353950442800977  0.000000000000000  0.000000000000001
   0.529428815714975 36.086854069236374  0.000000000000002
   0.000000000000000  0.000000000000000 32.575202432312658
  H   Pb   C   I   N   Ti   O
  80  16  16  48  32  48  96
Direct
   0.494926263614653  0.724056179789388  0.268557919870269
  -0.005047934391619  0.849074485923551  0.268544656897771
   0.495002444522369  0.474089077332379  0.268555123857240
  -0.004888941362692  0.599116433693949  0.268543321063700
   0.494972398082947  0.224079671876074  0.268539675625828
  -0.005036781729264  0.349089118169479  0.268544401846143
   0.494954590545362  0.974057846681325  0.268553153329185
  -0.005066323895358  0.099048708057412  0.268553369198194
   0.388623183404356  0.763530316761631  0.279085648487185
   0.388753244092335  0.513562099115651  0.279125031051312
   0.388700836872858  0.263562336415364  0.279095595898670
   0.388699305557236  0.013546455633558  0.279098751179400
   0.888725328978744  0.888564115852327  0.279095736692983
   0.888669575017539  0.638550117237534  0.279134664459708
   0.888748108397992  0.388572974066997  0.279117928066488
   0.888676961928790  0.138542061834265  0.279085563460873
   0.578673742133156  0.718202409941387  0.334674335237245
   0.078585243615384  0.843155595835209  0.334668385438801
   0.578606098211308  0.468140112893059  0.334672292333006
   0.078703524150105  0.593156884965710  0.334659691129419
   0.578590209148187  0.218156049301586  0.334664036162033
   0.078566838364076  0.343131186330052  0.334663412180118
   0.578627959736378  0.968158788285314  0.334676132555543
   0.078621890656519  0.093172449303983  0.334678732141491
   0.419946605676269  0.789168427605707  0.351724999668657
   0.420039867752719  0.539112371737559  0.351803164577630
   0.420019164724173  0.289140432889419  0.351763515791472
   0.420071962647056  0.039150941633586  0.351753113937475
   0.920110469695723  0.914155320111074  0.351755807679920
   0.919728214807487  0.664057254855766  0.351840477139065
   0.920113775814398  0.414123964984692  0.351795208696208
   0.920073943873569  0.164172266296871  0.351728000248126
   0.523784337332553  0.761585999368213  0.384572156821878
   0.523697739882633  0.511460727708008  0.384631114641750
   0.523718492743306  0.261499610561402  0.384603993291965
   0.523799069839444  0.011522709532515  0.384599855488231
   0.023783254623200  0.886512472301480  0.384599543698202
   0.023533693746187  0.636425942885992  0.384648042660941
   0.023739262701073  0.386456972823223  0.384623935474754
   0.023823164846964  0.136557185606028  0.384583596873394
   0.338879394758721  0.737087889757813  0.480304920794445
   0.838933364886351  0.862085905183286  0.480313775012778
   0.338956681532459  0.487103926710480  0.480338626421921
   0.838926290257544  0.612103667811363  0.480329404515826
   0.338879745872836  0.237099383529279  0.480314349649630
   0.838889650264771  0.362083763157499  0.480321472384496
   0.338962667026702  0.987109727243216  0.480322711254039
   0.838948783769112  0.112112929952718  0.480315161103904
   0.338617645256284  0.784287910302146  0.491307615179700
   0.338639378887190  0.534305565729043  0.491344192942541
   0.338607514002333  0.284290780256216  0.491326153396564
   0.338653916610891  0.034306269737374  0.491325075685352
   0.838629254955811  0.909286072381996  0.491312353493686
   0.838640982753931  0.659307052804075  0.491326546280178
   0.838582800338208  0.409279285433784  0.491326273249790
   0.838640583546304  0.159305711141561  0.491325226647390
   0.563747226714111  0.726755895541150  0.509221844276009
   0.063812934829000  0.851768653882439  0.509229371641395
   0.563846148160740  0.476787616933136  0.509252795526051
   0.063812174617961  0.601782217787321  0.509242619234861
   0.563754656201021  0.226766730843017  0.509222330985138
   0.063764246703720  0.351764101642405  0.509237183180327
   0.563855085735481  0.976794595577904  0.509229890720201
   0.063835662813083  0.101792998190691  0.509221728276160
   0.558039838252269  0.808350938248526  0.526642403870744
   0.058041721152634  0.933363547103893  0.526647356156837
   0.558037228474772  0.558385563066659  0.526675210405478
   0.058056980129787  0.683380888195267  0.526655279636837
   0.558032232099289  0.308352943727806  0.526662870120623
   0.057989969139073  0.433355188976829  0.526664983437705
   0.558073737392946  0.058385846128575  0.526656850458648
   0.058061260158295  0.183380060131093  0.526659953021358
   0.697701162389181  0.775373982376272  0.533672630874777
   0.197720945705826  0.900391935805930  0.533678224394309
   0.697733037192562  0.525414449179755  0.533706430036702
   0.197735085611918  0.650405151150863  0.533690253843107
   0.697684246600880  0.275382079790778  0.533685489930537
   0.197662554901872  0.400386291099776  0.533691725051296
   0.697751998041305  0.025417160349775  0.533682881309040
   0.197732406854636  0.150412303488875  0.533682545229191
   0.466869102287945  0.618296685412832  0.238126233417260
   0.966877958861289  0.743290396366656  0.238108342732884
   0.466847222064123  0.368314227962502  0.238117745717761
   0.966855046001649  0.493311954709231  0.238146199834483
   0.466847173836247  0.118304773372003  0.238106114282970
   0.966854439568519  0.243312417306367  0.238105138127832
   0.466859210824304  0.868307769541409  0.238105481748150
   0.966859503870074  0.993303410515888  0.238103536113797
   0.459187331588769  0.631829094772183  0.429437627253171
   0.959221861632678  0.756823802953412  0.429416140194383
   0.459161198057930  0.381837943925676  0.429434666092401
   0.959160604828177  0.506833635669771  0.429460806599525
   0.459207007698409  0.131834573060531  0.429421855300154
   0.959179688548327  0.256838174713071  0.429425607144333
   0.459210328375773  0.881831440479703  0.429426391147734
   0.959203801330772  0.006834064372954  0.429426674374104
   0.506404852124526  0.741294081569424  0.327086498585593
   0.006420294860103  0.866264788790409  0.327093230795265
   0.506400109726687  0.491253202065160  0.327111343922077
   0.006377058599392  0.616250084118334  0.327111967058815
   0.506399798484418  0.241261503131613  0.327092160974023
   0.006403417220149  0.366249006423758  0.327103014943914
   0.506440018901010  0.991260472176756  0.327098086805365
   0.006437500409433  0.116270518224663  0.327091851839699
   0.516128157651375  0.754577644105248  0.510391992100482
   0.016168204605169  0.879586723563156  0.510399809246715
   0.516177929754045  0.504610732446554  0.510426063274700
   0.016168507508184  0.629604352276499  0.510413000732107
   0.516120353206834  0.254586481696029  0.510402144323917
   0.016112838944406  0.379584088467908  0.510411048618233
   0.516199706566358  0.004611376790647  0.510405494374030
   0.016181549040255  0.129609116731918  0.510401503643458
   0.199057822700792  0.682217702817881  0.230264670106972
   0.699032338634225  0.807221554961108  0.230294098592839
   0.199035110172182  0.432235869871214  0.230263156961381
   0.699037113776284  0.557220206571942  0.230260386921480
   0.199031861627520  0.182235632798943  0.230248760245917
   0.699025704483065  0.307235941540881  0.230251159506407
   0.199058473005986  0.932234778641321  0.230236481740492
   0.699041322756982  0.057231477381369  0.230251754760363
   0.700937464018296  0.680071819368496  0.239089255568392
   0.700926507986809  0.430078216028668  0.239089390270564
   0.700939429896270  0.180072210568223  0.239095299388212
   0.200912528674442  0.305076654372106  0.239090101743641
   0.700945289667106  0.930070973488937  0.239072149245168
   0.200946190343488  0.055071086549791  0.239083572562938
   0.200932706606123  0.805073512251192  0.239098552807907
   0.200918277077626  0.555078551775879  0.239075137102868
   0.433705570700374  0.617697922848933  0.330547450497575
   0.933721925737850  0.742675667638053  0.330521876009664
   0.433615763561139  0.367762315567541  0.330530646669595
   0.933709156594453  0.492704836023005  0.330568999437992
   0.433608768270812  0.117767937477432  0.330524581970272
   0.933533839596934  0.242819456627456  0.330522488165775
   0.433399712033463  0.867872677316459  0.330517393199268
   0.933655042729212  0.992758241020757  0.330523721131873
   0.213966265589491  0.695146611695475  0.426455435725188
   0.213994212100495  0.445166645849434  0.426478832279538
   0.213961605310647  0.195155030861177  0.426454521809626
   0.213959365789308  0.945158467146402  0.426472225189085
   0.691101789846123  0.696870591828871  0.427092281470069
   0.191087548779003  0.821874477647872  0.427088145192693
   0.691050730269951  0.446893252267336  0.427140823040318
   0.191067865748154  0.571883739132307  0.427125086606536
   0.691077235383901  0.196887852322591  0.427103420916258
   0.191076594174481  0.321884867736123  0.427107136455817
   0.691079006968955  0.946880363069518  0.427114893973833
   0.191096527270130  0.071880053760187  0.427104128361134
   0.713970564382572  0.820152596176790  0.426438788985817
   0.713980761024491  0.570158949323398  0.426477642993069
   0.713967344021363  0.320157709978641  0.426458752254459
   0.713985996088882  0.070161694639790  0.426455638635935
   0.466044158716123  0.628528864325033  0.525377762207454
   0.966055103560608  0.753523853869164  0.525350435743961
   0.465963391795615  0.378500884626536  0.525371879486609
   0.966008261058535  0.503511870486926  0.525392650095625
   0.466047038725795  0.128530727725146  0.525361553076450
   0.966042712988470  0.253523703970568  0.525363479052893
   0.466024869125323  0.878496234599473  0.525357392026380
   0.966045034131884  0.003516621700009  0.525362688244609
   0.457470448594491  0.743081692103758  0.289519811894639
   0.957541053625076  0.868094166328008  0.289521743892601
   0.457553989686733  0.493097879132560  0.289536900086912
   0.957558536601065  0.618101933151391  0.289535115513661
   0.457532616232096  0.243094034059209  0.289519632920643
   0.957546866852402  0.368099792659623  0.289529877614584
   0.457538792304566  0.993079299440621  0.289528640915379
   0.957518716225117  0.118075688379568  0.289523100182176
   0.475428297765181  0.764936060978594  0.356741418420561
   0.975458398874256  0.889894667132637  0.356766444651748
   0.475407596302389  0.514858391919447  0.356798153718650
   0.975235772967852  0.639823457144688  0.356816583136835
   0.475400386715401  0.264884361529764  0.356770416229565
   0.975441868208583  0.389860434098770  0.356791127379863
   0.475465775344099  0.014896472231291  0.356766651416472
   0.975476197676433  0.139919328343458  0.356750245334019
   0.387009262248044  0.758856097423011  0.495045127797785
   0.887044894991816  0.883857033598902  0.495051835868952
   0.387051382419480  0.508877959501257  0.495077826392083
   0.887040203707833  0.633876393022793  0.495065624267192
   0.387012375609883  0.258863662389930  0.495057052484140
   0.886992978557222  0.383852585235432  0.495062722976811
   0.387078849201613  0.008879916963308  0.495060921342644
   0.887066604211961  0.133880146810985  0.495057469795497
   0.592071009183221  0.781029170451995  0.527000708243590
   0.092085895988243  0.906042857699787  0.527007690168589
   0.592099207598339  0.531066864137659  0.527038198581975
   0.092099798355036  0.656059913683608  0.527020448611232
   0.592062182979532  0.281033564137272  0.527017457617883
   0.092032156971240  0.406036841393056  0.527022534851145
   0.592120033426304  0.031066159306281  0.527014366770820
   0.092104189145534  0.156060673103357  0.527015181772024
   0.738054106136757  0.614250014292508  0.638722198864058
   0.487698876376265  0.031005956422417  0.637999974234430
   0.738051957028859  0.280920589805431  0.638546436440825
   0.488039117856783  0.364232751309032  0.638638018350496
   0.238012544956160  0.447554919988488  0.638674139174629
   0.987960251657270  0.530903388981279  0.638695723169846
   0.238285204903961  0.780873263078134  0.638722486949687
   0.987958139648444  0.197678282083042  0.638296545994773
   0.488185561717134  0.697598442245343  0.638752666505297
   0.988221217170622  0.864078599237795  0.638532638375825
   0.737676591615276  0.947559699399462  0.638291453587825
   0.237760337622225  0.114401810700977  0.638082999328750
   0.491811686633527  0.098478063061688  0.698678178412576
   0.492188225119956  0.431712760315042  0.699247165994000
   0.242177077912409  0.515054909717078  0.699226124530708
  -0.007752241034412  0.598418161956922  0.699270443402335
   0.742363196842562  0.681763805787262  0.699338795630996
   0.492384047371401  0.765108730881918  0.699384646576870
   0.242485656619273  0.848451143348423  0.699299217750085
   0.741793531947126  0.015190662720159  0.698621394525666
   0.242064949018795  0.181773340173163  0.699000780095880
  -0.007726730370724  0.265050473372021  0.699194545898751
   0.742243350481200  0.348373908139358  0.699200588660008
  -0.008110370601558  0.931752248255987  0.698612468746378
   0.475258511032233  0.895125219626473  0.696676466574847
   0.224704908354721  0.978422713788074  0.696062776133747
   0.475166818774570  0.228356472281975  0.696638472570850
   0.225274885653319  0.311680777918838  0.696800468385088
   0.975192947393201  0.394999963743627  0.696803184045780
   0.725175327046469  0.478329686883226  0.696813459792382
   0.475110709662244  0.561687742332063  0.696809488143191
   0.225233439730539  0.645034994702041  0.696863320526099
   0.975411188121838  0.728347425286717  0.696904287829379
   0.974962245539739  0.061766980822280  0.696080101675056
   0.725018763647281  0.145047258332564  0.696303936296281
   0.725465057279473  0.811689877991062  0.696884797612371
   0.228977843393357  0.045924245857102  0.756806951465294
   0.229416958295770  0.379152000533901  0.757386700037011
   0.729367180350076  0.545845908723355  0.757380302858874
   0.229559905519269  0.712551738250501  0.757517477451826
  -0.020404995789889  0.795922405475571  0.757422783590295
   0.478952301222958  0.962755901393553  0.756862514469065
  -0.020880478651191  0.129150972893225  0.756980519835965
   0.729317291797795  0.212429511705700  0.757199172026640
   0.479484473673456  0.295806387788181  0.757325037706369
  -0.020607986662083  0.462503516369002  0.757385945062770
   0.479473344756392  0.629194379529663  0.757441029532317
   0.729552453733687  0.879376249337701  0.757063110639727
   0.885442528554838  0.910300018973238  0.626426844908923
   0.385458254862583  0.410374391862168  0.626403352750103
   0.135400709012809  0.493706662605388  0.626437345671577
   0.885500778340078  0.577067807183852  0.626445033716673
   0.635551904908369  0.660415142641700  0.626479993550198
   0.385161319946874  0.077193651334131  0.625801022732899
   0.635443470855339  0.327081653114898  0.626330786129649
   0.385629824352062  0.743712172707816  0.626408946524727
   0.135671597852754  0.826934600619930  0.626243530705085
   0.135294548269989  0.160531183722284  0.625816009511218
   0.885372076176280  0.243809584595562  0.626089287257340
   0.635187611786257  0.993721919415837  0.625981934512379
   0.602498178827139  0.587142068973678  0.660115709484260
   0.852413990887899  0.503788064735226  0.660086068483204
   0.102861354894492  0.753780304991733  0.660221503964815
   0.602167248961572  0.920497862591742  0.659785285256087
   0.852935177366725  0.836969079433651  0.660062718928354
   0.102107360095647  0.087241747526407  0.659362489755571
   0.352615263347442  0.670496652185910  0.660168649504196
   0.852386980546308  0.170526941487168  0.659620737591608
   0.602504677276674  0.253795042610034  0.659926956100578
   0.352542242440145  0.337121702745654  0.660067725295361
   0.102524896109253  0.420429634840389  0.660079825155839
   0.352037210173743  0.003876544357469  0.659314413231589
   0.366690122727773  0.873250570117123  0.659453725169008
   0.616162855457284  0.123456862044437  0.658953007896178
   0.116567169938281  0.290004717895882  0.659469640830240
   0.866619225974540  0.373289239929693  0.659458936366414
   0.116576545696332  0.623336477723605  0.659530512474889
   0.116281399741708  0.956597498954223  0.658776243452360
   0.866130457151645  0.040078952148496  0.658804243526617
   0.366322761330904  0.206755113081951  0.659288442296148
   0.616547981109063  0.456612715030697  0.659491471068804
   0.616817017322774  0.789923759842197  0.659596558544863
   0.366513590214387  0.539969123545796  0.659474686509264
   0.866738075006030  0.706646419451762  0.659577238350954
   0.332364337288654  0.799749395898682  0.684391824997633
   0.582182662927168  0.716413142977081  0.684456397517635
   0.082405040193233  0.883011545781763  0.684120278969956
   0.831786560130646  0.966496276326129  0.683864721313130
   0.581752502364690  0.049855456056136  0.683649481559456
   0.081922029121947  0.216398489399864  0.684058766120633
   0.832085738572945  0.299677275437105  0.684277508980374
   0.582113464752628  0.383037452732993  0.684331182417911
   0.332154526214250  0.466366972710178  0.684339937300171
   0.082081044312209  0.549725156087298  0.684357211271424
   0.832132959811483  0.633069121080702  0.684403039894145
   0.331608345108516  0.133131694063269  0.683847316797890
   0.135007504399430  0.027112200249387  0.711074504646002
   0.885305427981781  0.443682075881623  0.711708903727263
   0.635275479884995  0.527022479024722  0.711706016354303
   0.885528471636852  0.777019666970610  0.711801251168409
   0.635377492152534  0.860411852306905  0.711498694400742
   0.384815247878488  0.943868694607996  0.711227260257957
   0.885209858574687  0.110420129517362  0.711216169836636
   0.635358457892429  0.193686707597351  0.711448091358992
   0.385406983981232  0.277020697729497  0.711637177725494
   0.135303670921868  0.360340400895817  0.711722457906989
   0.385338882622738  0.610387256347575  0.711753169042569
   0.135489567157471  0.693710705830702  0.711848070959746
   0.350777175697857  0.536783556671173  0.736553246415994
   0.100911942001569  0.620115940107150  0.736610744418185
   0.851057580337689  0.703455710624704  0.736669663719491
   0.350945793004001  0.870313660948893  0.736549463028438
   0.100980963991513  0.286709360402469  0.736534681938829
   0.600815132957467  0.453437266117660  0.736566626504308
   0.600967199255431  0.786872515323700  0.736688145212966
   0.850676682045431  0.036895906937660  0.735883150432334
   0.600687742962303  0.120086368781700  0.736020728500244
   0.350887054553160  0.203376818226897  0.736366762064966
   0.850861275125568  0.370071060994198  0.736537699142338
   0.100441458133585  0.953599071360308  0.735862551971919
   0.115197593551624  0.823003105133228  0.736028137376313
   0.364460124824590  0.073040242970564  0.735368510798901
   0.364872114567852  0.406270968892574  0.735964018582880
   0.114832615507619  0.489613155923138  0.735940056011013
   0.864912302005914  0.572948581350629  0.735978605021947
   0.615055082329708  0.656290792576594  0.736051183706363
   0.365073416655724  0.739672846476942  0.736130187306013
   0.864949603984121  0.906439986490948  0.735539752816942
   0.614365554653887  0.989879202958743  0.735417851809059
   0.114747223792177  0.156281456559428  0.735640599677655
   0.865048834419837  0.239534836588316  0.735879530921594
   0.615069617001560  0.322906535970846  0.735945331744626
   0.331745506276799 -0.000107632664348  0.769268882721335
   0.081733138620447  0.083034553811899  0.769261307468312
   0.831882670912552  0.166289852904319  0.769413560198059
   0.581976461009633  0.249609382645759  0.769513115042013
   0.332049694465005  0.332993371650617  0.769600973669756
   0.082005937704495  0.416345871129668  0.769651848959530
   0.831955912839558  0.499682740706096  0.769633693414368
   0.582020679463520  0.583027565908244  0.769665682111472
   0.332148217845599  0.666389848224153  0.769757180169268
   0.082189354919240  0.749780759760153  0.769763518259508
   0.832184019237334  0.833232729108379  0.769402586417605
   0.581915377849348  0.916601640736174  0.769026618771863

  0.00000000E+00  0.00000000E+00  0.00000000E+00
  0.00000000E+00  0.00000000E+00  0.00000000E+00
  0.00000000E+00  0.00000000E+00  0.00000000E+00
  0.00000000E+00  0.00000000E+00  0.00000000E+00
  0.00000000E+00  0.00000000E+00  0.00000000E+00
  0.00000000E+00  0.00000000E+00  0.00000000E+00
  0.00000000E+00  0.00000000E+00  0.00000000E+00
  0.00000000E+00  0.00000000E+00  0.00000000E+00
  0.00000000E+00  0.00000000E+00  0.00000000E+00
  0.00000000E+00  0.00000000E+00  0.00000000E+00
  0.00000000E+00  0.00000000E+00  0.00000000E+00
  0.00000000E+00  0.00000000E+00  0.00000000E+00
  0.00000000E+00  0.00000000E+00  0.00000000E+00
  0.00000000E+00  0.00000000E+00  0.00000000E+00
  0.00000000E+00  0.00000000E+00  0.00000000E+00
  0.00000000E+00  0.00000000E+00  0.00000000E+00
  0.00000000E+00  0.00000000E+00  0.00000000E+00
  0.00000000E+00  0.00000000E+00  0.00000000E+00
  0.00000000E+00  0.00000000E+00  0.00000000E+00
  0.00000000E+00  0.00000000E+00  0.00000000E+00
  0.00000000E+00  0.00000000E+00  0.00000000E+00
  0.00000000E+00  0.00000000E+00  0.00000000E+00
  0.00000000E+00  0.00000000E+00  0.00000000E+00
  0.00000000E+00  0.00000000E+00  0.00000000E+00
  0.00000000E+00  0.00000000E+00  0.00000000E+00
  0.00000000E+00  0.00000000E+00  0.00000000E+00
  0.00000000E+00  0.00000000E+00  0.00000000E+00
  0.00000000E+00  0.00000000E+00  0.00000000E+00
  0.00000000E+00  0.00000000E+00  0.00000000E+00
  0.00000000E+00  0.00000000E+00  0.00000000E+00
  0.00000000E+00  0.00000000E+00  0.00000000E+00
  0.00000000E+00  0.00000000E+00  0.00000000E+00
  0.00000000E+00  0.00000000E+00  0.00000000E+00
  0.00000000E+00  0.00000000E+00  0.00000000E+00
  0.00000000E+00  0.00000000E+00  0.00000000E+00
  0.00000000E+00  0.00000000E+00  0.00000000E+00
  0.00000000E+00  0.00000000E+00  0.00000000E+00
  0.00000000E+00  0.00000000E+00  0.00000000E+00
  0.00000000E+00  0.00000000E+00  0.00000000E+00
  0.00000000E+00  0.00000000E+00  0.00000000E+00
  0.00000000E+00  0.00000000E+00  0.00000000E+00
  0.00000000E+00  0.00000000E+00  0.00000000E+00
  0.00000000E+00  0.00000000E+00  0.00000000E+00
  0.00000000E+00  0.00000000E+00  0.00000000E+00
  0.00000000E+00  0.00000000E+00  0.00000000E+00
  0.00000000E+00  0.00000000E+00  0.00000000E+00
  0.00000000E+00  0.00000000E+00  0.00000000E+00
  0.00000000E+00  0.00000000E+00  0.00000000E+00
  0.00000000E+00  0.00000000E+00  0.00000000E+00
  0.00000000E+00  0.00000000E+00  0.00000000E+00
  0.00000000E+00  0.00000000E+00  0.00000000E+00
  0.00000000E+00  0.00000000E+00  0.00000000E+00
  0.00000000E+00  0.00000000E+00  0.00000000E+00
  0.00000000E+00  0.00000000E+00  0.00000000E+00
  0.00000000E+00  0.00000000E+00  0.00000000E+00
  0.00000000E+00  0.00000000E+00  0.00000000E+00
  0.00000000E+00  0.00000000E+00  0.00000000E+00
  0.00000000E+00  0.00000000E+00  0.00000000E+00
  0.00000000E+00  0.00000000E+00  0.00000000E+00
  0.00000000E+00  0.00000000E+00  0.00000000E+00
  0.00000000E+00  0.00000000E+00  0.00000000E+00
  0.00000000E+00  0.00000000E+00  0.00000000E+00
  0.00000000E+00  0.00000000E+00  0.00000000E+00
  0.00000000E+00  0.00000000E+00  0.00000000E+00
  0.00000000E+00  0.00000000E+00  0.00000000E+00
  0.00000000E+00  0.00000000E+00  0.00000000E+00
  0.00000000E+00  0.00000000E+00  0.00000000E+00
  0.00000000E+00  0.00000000E+00  0.00000000E+00
  0.00000000E+00  0.00000000E+00  0.00000000E+00
  0.00000000E+00  0.00000000E+00  0.00000000E+00
  0.00000000E+00  0.00000000E+00  0.00000000E+00
  0.00000000E+00  0.00000000E+00  0.00000000E+00
  0.00000000E+00  0.00000000E+00  0.00000000E+00
  0.00000000E+00  0.00000000E+00  0.00000000E+00
  0.00000000E+00  0.00000000E+00  0.00000000E+00
  0.00000000E+00  0.00000000E+00  0.00000000E+00
  0.00000000E+00  0.00000000E+00  0.00000000E+00
  0.00000000E+00  0.00000000E+00  0.00000000E+00
  0.00000000E+00  0.00000000E+00  0.00000000E+00
  0.00000000E+00  0.00000000E+00  0.00000000E+00
  0.00000000E+00  0.00000000E+00  0.00000000E+00
  0.00000000E+00  0.00000000E+00  0.00000000E+00
  0.00000000E+00  0.00000000E+00  0.00000000E+00
  0.00000000E+00  0.00000000E+00  0.00000000E+00
  0.00000000E+00  0.00000000E+00  0.00000000E+00
  0.00000000E+00  0.00000000E+00  0.00000000E+00
  0.00000000E+00  0.00000000E+00  0.00000000E+00
  0.00000000E+00  0.00000000E+00  0.00000000E+00
  0.00000000E+00  0.00000000E+00  0.00000000E+00
  0.00000000E+00  0.00000000E+00  0.00000000E+00
  0.00000000E+00  0.00000000E+00  0.00000000E+00
  0.00000000E+00  0.00000000E+00  0.00000000E+00
  0.00000000E+00  0.00000000E+00  0.00000000E+00
  0.00000000E+00  0.00000000E+00  0.00000000E+00
  0.00000000E+00  0.00000000E+00  0.00000000E+00
  0.00000000E+00  0.00000000E+00  0.00000000E+00
  0.00000000E+00  0.00000000E+00  0.00000000E+00
  0.00000000E+00  0.00000000E+00  0.00000000E+00
  0.00000000E+00  0.00000000E+00  0.00000000E+00
  0.00000000E+00  0.00000000E+00  0.00000000E+00
  0.00000000E+00  0.00000000E+00  0.00000000E+00
  0.00000000E+00  0.00000000E+00  0.00000000E+00
  0.00000000E+00  0.00000000E+00  0.00000000E+00
  0.00000000E+00  0.00000000E+00  0.00000000E+00
  0.00000000E+00  0.00000000E+00  0.00000000E+00
  0.00000000E+00  0.00000000E+00  0.00000000E+00
  0.00000000E+00  0.00000000E+00  0.00000000E+00
  0.00000000E+00  0.00000000E+00  0.00000000E+00
  0.00000000E+00  0.00000000E+00  0.00000000E+00
  0.00000000E+00  0.00000000E+00  0.00000000E+00
  0.00000000E+00  0.00000000E+00  0.00000000E+00
  0.00000000E+00  0.00000000E+00  0.00000000E+00
  0.00000000E+00  0.00000000E+00  0.00000000E+00
  0.00000000E+00  0.00000000E+00  0.00000000E+00
  0.00000000E+00  0.00000000E+00  0.00000000E+00
  0.00000000E+00  0.00000000E+00  0.00000000E+00
  0.00000000E+00  0.00000000E+00  0.00000000E+00
  0.00000000E+00  0.00000000E+00  0.00000000E+00
  0.00000000E+00  0.00000000E+00  0.00000000E+00
  0.00000000E+00  0.00000000E+00  0.00000000E+00
  0.00000000E+00  0.00000000E+00  0.00000000E+00
  0.00000000E+00  0.00000000E+00  0.00000000E+00
  0.00000000E+00  0.00000000E+00  0.00000000E+00
  0.00000000E+00  0.00000000E+00  0.00000000E+00
  0.00000000E+00  0.00000000E+00  0.00000000E+00
  0.00000000E+00  0.00000000E+00  0.00000000E+00
  0.00000000E+00  0.00000000E+00  0.00000000E+00
  0.00000000E+00  0.00000000E+00  0.00000000E+00
  0.00000000E+00  0.00000000E+00  0.00000000E+00
  0.00000000E+00  0.00000000E+00  0.00000000E+00
  0.00000000E+00  0.00000000E+00  0.00000000E+00
  0.00000000E+00  0.00000000E+00  0.00000000E+00
  0.00000000E+00  0.00000000E+00  0.00000000E+00
  0.00000000E+00  0.00000000E+00  0.00000000E+00
  0.00000000E+00  0.00000000E+00  0.00000000E+00
  0.00000000E+00  0.00000000E+00  0.00000000E+00
  0.00000000E+00  0.00000000E+00  0.00000000E+00
  0.00000000E+00  0.00000000E+00  0.00000000E+00
  0.00000000E+00  0.00000000E+00  0.00000000E+00
  0.00000000E+00  0.00000000E+00  0.00000000E+00
  0.00000000E+00  0.00000000E+00  0.00000000E+00
  0.00000000E+00  0.00000000E+00  0.00000000E+00
  0.00000000E+00  0.00000000E+00  0.00000000E+00
  0.00000000E+00  0.00000000E+00  0.00000000E+00
  0.00000000E+00  0.00000000E+00  0.00000000E+00
  0.00000000E+00  0.00000000E+00  0.00000000E+00
  0.00000000E+00  0.00000000E+00  0.00000000E+00
  0.00000000E+00  0.00000000E+00  0.00000000E+00
  0.00000000E+00  0.00000000E+00  0.00000000E+00
  0.00000000E+00  0.00000000E+00  0.00000000E+00
  0.00000000E+00  0.00000000E+00  0.00000000E+00
  0.00000000E+00  0.00000000E+00  0.00000000E+00
  0.00000000E+00  0.00000000E+00  0.00000000E+00
  0.00000000E+00  0.00000000E+00  0.00000000E+00
  0.00000000E+00  0.00000000E+00  0.00000000E+00
  0.00000000E+00  0.00000000E+00  0.00000000E+00
  0.00000000E+00  0.00000000E+00  0.00000000E+00
  0.00000000E+00  0.00000000E+00  0.00000000E+00
  0.00000000E+00  0.00000000E+00  0.00000000E+00
  0.00000000E+00  0.00000000E+00  0.00000000E+00
  0.00000000E+00  0.00000000E+00  0.00000000E+00
  0.00000000E+00  0.00000000E+00  0.00000000E+00
  0.00000000E+00  0.00000000E+00  0.00000000E+00
  0.00000000E+00  0.00000000E+00  0.00000000E+00
  0.00000000E+00  0.00000000E+00  0.00000000E+00
  0.00000000E+00  0.00000000E+00  0.00000000E+00
  0.00000000E+00  0.00000000E+00  0.00000000E+00
  0.00000000E+00  0.00000000E+00  0.00000000E+00
  0.00000000E+00  0.00000000E+00  0.00000000E+00
  0.00000000E+00  0.00000000E+00  0.00000000E+00
  0.00000000E+00  0.00000000E+00  0.00000000E+00
  0.00000000E+00  0.00000000E+00  0.00000000E+00
  0.00000000E+00  0.00000000E+00  0.00000000E+00
  0.00000000E+00  0.00000000E+00  0.00000000E+00
  0.00000000E+00  0.00000000E+00  0.00000000E+00
  0.00000000E+00  0.00000000E+00  0.00000000E+00
  0.00000000E+00  0.00000000E+00  0.00000000E+00
  0.00000000E+00  0.00000000E+00  0.00000000E+00
  0.00000000E+00  0.00000000E+00  0.00000000E+00
  0.00000000E+00  0.00000000E+00  0.00000000E+00
  0.00000000E+00  0.00000000E+00  0.00000000E+00
  0.00000000E+00  0.00000000E+00  0.00000000E+00
  0.00000000E+00  0.00000000E+00  0.00000000E+00
  0.00000000E+00  0.00000000E+00  0.00000000E+00
  0.00000000E+00  0.00000000E+00  0.00000000E+00
  0.00000000E+00  0.00000000E+00  0.00000000E+00
  0.00000000E+00  0.00000000E+00  0.00000000E+00
  0.00000000E+00  0.00000000E+00  0.00000000E+00
  0.00000000E+00  0.00000000E+00  0.00000000E+00
  0.00000000E+00  0.00000000E+00  0.00000000E+00
  0.00000000E+00  0.00000000E+00  0.00000000E+00
  0.00000000E+00  0.00000000E+00  0.00000000E+00
  0.00000000E+00  0.00000000E+00  0.00000000E+00
  0.00000000E+00  0.00000000E+00  0.00000000E+00
  0.00000000E+00  0.00000000E+00  0.00000000E+00
  0.00000000E+00  0.00000000E+00  0.00000000E+00
  0.00000000E+00  0.00000000E+00  0.00000000E+00
  0.00000000E+00  0.00000000E+00  0.00000000E+00
  0.00000000E+00  0.00000000E+00  0.00000000E+00
  0.00000000E+00  0.00000000E+00  0.00000000E+00
  0.00000000E+00  0.00000000E+00  0.00000000E+00
  0.00000000E+00  0.00000000E+00  0.00000000E+00